NAME          
ROWS
 N  OBJ
 L  c1
 L  c2
 L  c3
COLUMNS
    MARKER    'MARKER'                 'INTORG'
    x[1]      c1        471
    x[1]      c2        702
    x[1]      c3        273
    x[1]      OBJ       -823
    x[2]      c1        357
    x[2]      c2        467
    x[2]      c3        824
    x[2]      OBJ       -169
    x[3]      c1        832
    x[3]      c2        929
    x[3]      c3        999
    x[3]      OBJ       -640
    x[4]      c1        841
    x[4]      c2        700
    x[4]      c3        309
    x[4]      OBJ       -213
    x[5]      c1        907
    x[5]      c2        579
    x[5]      c3        858
    x[5]      OBJ       -521
    x[6]      c1        912
    x[6]      c2        859
    x[6]      c3        772
    x[6]      OBJ       -274
    x[7]      c1        865
    x[7]      c2        511
    x[7]      c3        315
    x[7]      OBJ       -754
    x[8]      c1        919
    x[8]      c2        46
    x[8]      c3        450
    x[8]      OBJ       -983
    x[9]      c1        551
    x[9]      c2        262
    x[9]      c3        465
    x[9]      OBJ       -687
    x[10]     c1        591
    x[10]     c2        504
    x[10]     c3        890
    x[10]     OBJ       -869
    x[11]     c1        216
    x[11]     c2        586
    x[11]     c3        407
    x[11]     OBJ       -951
    x[12]     c1        613
    x[12]     c2        355
    x[12]     c3        919
    x[12]     OBJ       -855
    x[13]     c1        308
    x[13]     c2        355
    x[13]     c3        581
    x[13]     OBJ       -125
    x[14]     c1        628
    x[14]     c2        388
    x[14]     c3        556
    x[14]     OBJ       -940
    x[15]     c1        931
    x[15]     c2        905
    x[15]     c3        435
    x[15]     OBJ       -642
    x[16]     c1        333
    x[16]     c2        289
    x[16]     c3        966
    x[16]     OBJ       -130
    x[17]     c1        855
    x[17]     c2        122
    x[17]     c3        417
    x[17]     OBJ       -781
    x[18]     c1        42
    x[18]     c2        686
    x[18]     c3        920
    x[18]     OBJ       -821
    x[19]     c1        642
    x[19]     c2        450
    x[19]     c3        746
    x[19]     OBJ       -495
    x[20]     c1        457
    x[20]     c2        125
    x[20]     c3        32
    x[20]     OBJ       -241
    x[21]     c1        47
    x[21]     c2        271
    x[21]     c3        207
    x[21]     OBJ       -451
    x[22]     c1        924
    x[22]     c2        127
    x[22]     c3        295
    x[22]     OBJ       -557
    x[23]     c1        713
    x[23]     c2        950
    x[23]     c3        217
    x[23]     OBJ       -510
    x[24]     c1        429
    x[24]     c2        804
    x[24]     c3        598
    x[24]     OBJ       -515
    x[25]     c1        528
    x[25]     c2        298
    x[25]     c3        890
    x[25]     OBJ       -418
    x[26]     c1        138
    x[26]     c2        222
    x[26]     c3        6
    x[26]     OBJ       -672
    x[27]     c1        489
    x[27]     c2        122
    x[27]     c3        288
    x[27]     OBJ       -92
    x[28]     c1        290
    x[28]     c2        923
    x[28]     c3        415
    x[28]     OBJ       -844
    x[29]     c1        523
    x[29]     c2        277
    x[29]     c3        66
    x[29]     OBJ       -824
    x[30]     c1        472
    x[30]     c2        602
    x[30]     c3        923
    x[30]     OBJ       -690
RHS
    rhs       c1        8412
    rhs       c2        7208
    rhs       c3        8020
RANGES
BOUNDS
 BV bounds    x[1]
 BV bounds    x[2]
 BV bounds    x[3]
 BV bounds    x[4]
 BV bounds    x[5]
 BV bounds    x[6]
 BV bounds    x[7]
 BV bounds    x[8]
 BV bounds    x[9]
 BV bounds    x[10]
 BV bounds    x[11]
 BV bounds    x[12]
 BV bounds    x[13]
 BV bounds    x[14]
 BV bounds    x[15]
 BV bounds    x[16]
 BV bounds    x[17]
 BV bounds    x[18]
 BV bounds    x[19]
 BV bounds    x[20]
 BV bounds    x[21]
 BV bounds    x[22]
 BV bounds    x[23]
 BV bounds    x[24]
 BV bounds    x[25]
 BV bounds    x[26]
 BV bounds    x[27]
 BV bounds    x[28]
 BV bounds    x[29]
 BV bounds    x[30]
ENDATA
